Name: Glycine, 3TMS
DB.idx: 5
RI: 1302.682
monoMW: 291.61
std.rt: 13.965
Class: Standard
DB.idx: 5
Num Peaks: 59
 42  6;  44  10;  45  73;  46  6;  58  7; 
 59  70;  60  5;  70  5;  73  466;  74  40; 
 75  35;  86  158;  87  17;  88  6;  100  75; 
 101  13;  102  6;  103  6;  114  4;  115  3; 
 116  9;  117  12;  118  3;  119  6;  128  3; 
 130  21;  131  23;  132  4;  133  61;  134  7; 
 135  5;  144  7;  145  5;  147  223;  148  36; 
 149  15;  150  3;  156  4;  158  7;  172  7; 
 174  999;  175  184;  176  81;  177  14;  188  3; 
 189  3;  204  3;  246  12;  248  130;  249  33; 
 250  16;  251  4;  255  4;  274  4;  276  44; 
 277  11;  278  5;  325  8;  430  5; 

Name: Pyroglutamic acid, 2TMS
DB.idx: 6
RI: 1650.417
Formula: C11H23NO3Si2
MW: 273.477
std.rt: 19.496
Class: Standard
DB.idx: 6
Num Peaks: 97
 39  2;  41  5;  42  2;  43  13;  44  11; 
 45  47;  46  3;  47  6;  55  6;  56  2; 
 57  3;  58  10;  59  13;  60  2;  61  4; 
 66  8;  67  4;  68  2;  69  2;  70  5; 
 71  3;  72  15;  73  446;  74  40;  75  46; 
 76  3;  77  2;  80  2;  82  1;  83  2; 
 84  9;  85  6;  86  8;  87  2;  88  1; 
 89  1;  97  1;  98  2;  99  4;  100  6; 
 101  2;  102  2;  103  2;  105  1;  110  1; 
 112  7;  113  2;  114  3;  115  3;  116  1; 
 117  4;  118  1;  119  1;  126  2;  127  2; 
 128  2;  129  3;  130  1;  131  10;  132  3; 
 133  19;  134  3;  135  2;  139  1;  140  15; 
 141  4;  142  3;  143  1;  147  163;  148  25; 
 149  13;  150  1;  154  6;  156  999;  157  125; 
 158  42;  159  3;  168  1;  170  1;  172  1; 
 174  1;  183  1;  186  1;  190  1;  214  6; 
 215  1;  216  1;  228  4;  230  68;  231  14; 
 232  6;  233  1;  258  66;  259  14;  260  6; 
 261  1;  273  3; 

Name: Alanine, 3TMS
DB.idx: 7
RI: 1360.504
Formula: C12H31NO2Si3
MW: 305.637
std.rt: 15.323
Class: Manual
DB.idx: 7
Num Peaks: 58
 43  16;  44  8;  45  87;  46  4;  47  5; 
 55  3;  57  5;  58  8;  59  114;  60  4; 
 61  5;  66  3;  70  7;  71  4;  73  571; 
 74  42;  75  37;  85  3;  86  5;  87  3; 
 100  464;  101  46;  102  19;  114  126;  115  19; 
 116  21;  117  10;  119  5;  128  4;  130  36; 
 131  28;  133  97;  134  9;  135  5;  142  3; 
 147  227;  148  32;  149  18;  158  14;  160  3; 
 172  20;  173  3;  174  10;  175  7;  188  999; 
 189  178;  190  79;  200  3;  202  10;  204  3; 
 207  4;  246  9;  262  168;  263  40;  264  21; 
 290  26;  291  7;  292  4; 

Name: Aspartic acid, 2TMS
DB.idx: 8
RI: 1422.39
Formula: C10H23NO4Si2
MW: 277.465
std.rt: 17.073
Class: Manual
DB.idx: 8
Num Peaks: 63
 70  58;  71  6;  72  32;  73  999;  74  116; 
 75  311;  76  30;  77  16;  84  4;  85  4; 
 86  10;  87  8;  88  6;  89  8;  91  5; 
 98  6;  99  7;  100  53;  101  11;  102  21; 
 103  13;  115  7;  116  222;  117  263;  118  36; 
 119  12;  128  17;  129  7;  130  309;  131  48; 
 132  20;  133  24;  134  4;  135  3;  143  3; 
 144  43;  145  6;  146  27;  147  132;  148  24; 
 149  18;  150  3;  159  25;  160  580;  161  73; 
 162  26;  172  10;  174  6;  187  7;  190  3; 
 202  21;  203  4;  220  16;  221  3;  234  33; 
 235  8;  236  3;  244  7;  245  50;  246  11; 
 247  4;  262  17;  263  3; 

Name: Tryptamine, 2TMS
DB.idx: 9
RI: 2224.531
Formula: C16H28N2Si2
MW: 304.578
std.rt: 19.047
Class: Manual
DB.idx: 9
Num Peaks: 119
 45  40;  46  4;  47  2;  50  1;  51  3; 
 52  2;  53  1;  54  1;  55  2;  56  2; 
 57  4;  58  8;  59  94;  60  9;  61  3; 
 63  2;  65  2;  66  1;  67  1;  69  1; 
 70  3;  71  3;  72  10;  73  475;  74  46; 
 75  21;  76  4;  77  28;  78  3;  79  1; 
 81  1;  83  1;  84  2;  85  1;  86  198; 
 87  20;  88  8;  89  4;  90  3;  91  4; 
 99  2;  100  103;  101  19;  102  23;  103  26; 
 104  4;  105  1;  113  3;  114  3;  115  17; 
 116  15;  117  29;  118  6;  119  2;  120  1; 
 127  2;  128  10;  129  9;  130  152;  131  32; 
 132  9;  133  3;  134  4;  135  1;  137  33; 
 138  6;  141  1;  142  5;  143  16;  144  22; 
 145  9;  146  26;  147  6;  148  4;  155  1; 
 156  3;  157  1;  158  13;  159  4;  160  12; 
 161  3;  162  1;  170  3;  171  1;  172  18; 
 174  999;  175  249;  176  113;  177  16;  178  3; 
 184  4;  185  1;  186  7;  187  2;  188  22; 
 189  4;  190  2;  199  3;  200  3;  201  39; 
 202  9;  203  2;  204  1;  207  1;  213  1; 
 214  3;  215  34;  216  7;  217  2;  273  1; 
 287  4;  288  1;  289  56;  290  16;  291  6; 
 292  1;  303  1;  304  3;  305  1; 

Name: Unknown 1
DB.idx: -1
rt: 10.488
Class: Unknown
rt.sd: 0.0049
Num Peaks: 63
 73  2608558;  74  259289;  119  45060;  133  119547;  146  126142; 
 147  2071419;  148  320745;  149  203305;  150  41001;  163  21345; 
 165  22740;  177  43829;  178  14755;  179  46037;  181  6454; 
 189  53917;  191  202459;  193  83967;  195  13020;  203  31098; 
 205  87391;  207  412488;  208  126065;  221  36364;  235  27212; 
 237  19894;  247  40312;  249  329561;  250  112987;  251  103491; 
 253  23929;  261  11575;  263  14377;  265  339935;  266  85092; 
 267  77377;  269  8066;  277  22768;  279  46230;  281  2114038; 
 282  568172;  283  408364;  284  90638;  285  39917;  286  10026; 
 295  5943;  309  6064;  322  4007;  337  6595;  348  4820; 
 353  27914;  355  13556;  361  6526;  366  8572;  368  19262; 
 369  491049;  370  232649;  371  135119;  372  46012;  373  19844; 
 374  2925;  392  1828;  434  1752; 

Name: Unknown 2
DB.idx: -2
rt: 11.428
Class: Unknown
rt.sd: 0.005
Num Peaks: 16
 87  119129;  100  186341;  115  59259;  116  992454;  117  191691; 
 118  63267;  122  20884;  190  122183;  191  47676;  192  22568; 
 212  47401;  213  12863;  232  154371;  233  39862;  247  10897; 
 356  9061; 

Name: Unknown 3
DB.idx: -3
rt: 13.246
Class: Unknown
rt.sd: 0.0038
Num Peaks: 120
 57  390054;  59  1639692;  60  250002;  61  582435;  62  45890; 
 63  95002;  71  381999;  73  23557576;  74  1973826;  77  362958; 
 85  166643;  87  224807;  90  98574;  91  148667;  97  35691; 
 105  311016;  107  173337;  109  65936;  115  982633;  119  831035; 
 120  216797;  121  629907;  122  87824;  123  253838;  124  60002; 
 125  31629;  126  75065;  131  1007501;  132  471792;  133  4952319; 
 134  811023;  135  1470056;  136  258418;  137  655240;  138  74410; 
 139  82384;  145  117841;  151  505379;  152  71412;  153  117096; 
 163  183204;  165  436676;  167  424754;  168  88361;  178  133563; 
 179  368202;  181  1038322;  182  171518;  183  337997;  185  26994; 
 189  726185;  191  2210788;  192  552202;  193  2870904;  194  525892; 
 195  667739;  197  153670;  199  18708;  207  3298016;  208  655173; 
 209  549089;  210  221053;  211  5254906;  212  780649;  213  454025; 
 214  51284;  221  426955;  222  113503;  224  70619;  225  1419745; 
 226  248991;  227  412550;  228  78233;  237  37136;  239  62017; 
 241  26071;  252  18480;  253  266323;  255  174420;  256  39782; 
 265  13170;  267  198725;  268  59515;  269  402886;  270  102930; 
 271  62342;  272  9942;  279  17521;  282  106269;  283  2951052; 
 284  684021;  285  486147;  286  82044;  287  23298;  289  28344; 
 291  26122;  294  116585;  296  140885;  297  876085;  299  48121464; 
 300  10462022;  301  6060726;  302  1044864;  303  221471;  304  31765; 
 306  22437;  308  13922;  309  20969;  311  32836;  313  288045; 
 314  6594540;  315  1540205;  316  921598;  317  174334;  318  57667; 
 361  5714;  373  12172;  374  10019;  385  6332;  387  6522; 

Name: Unknown 4
DB.idx: -4
rt: 17.867
Class: Unknown
rt.sd: 0.0031
Num Peaks: 121
 53  124547;  54  174857;  55  405205;  56  294691;  57  384151; 
 58  967049;  59  5650866;  60  647587;  61  337042;  65  104055; 
 67  136290;  68  353274;  69  292321;  71  398833;  72  787958; 
 73  16128494;  74  1829961;  80  77690;  81  89199;  82  1986023; 
 83  266856;  85  501078;  86  4305931;  87  836415;  88  299024; 
 89  1262117;  90  162294;  91  59924;  92  47342;  95  84073; 
 96  66174;  97  106872;  98  383936;  99  386972;  100  2327671; 
 101  521039;  102  1860711;  103  259639;  104  103195;  109  22747; 
 110  60281;  111  66214;  112  333511;  113  419364;  114  1979097; 
 115  507657;  116  766933;  117  771651;  118  176991;  119  80395; 
 122  185293;  124  76813;  126  380720;  127  195150;  128  434799; 
 129  347847;  130  1985902;  131  636920;  132  315760;  136  16005; 
 138  156258;  139  92830;  140  133824;  141  55930;  143  89592; 
 144  290291;  145  61946;  146  379381;  151  73177;  153  353505; 
 154  7374076;  155  2711522;  158  497178;  159  140463;  160  585873; 
 161  115385;  162  193178;  163  42512;  167  25403;  169  253047; 
 170  579330;  171  315084;  172  3852340;  173  1077578;  174  15828796; 
 175  2807166;  176  1305832;  177  170316;  178  36176;  185  64939; 
 186  361242;  187  293046;  190  405279;  191  94409;  192  40718; 
 197  21845;  199  40862;  200  136488;  201  541827;  202  134473; 
 203  41652;  210  16129;  213  175952;  214  55599;  224  16179; 
 226  56736;  227  723087;  228  191486;  229  91684;  239  25616; 
 242  153765;  243  7094810;  244  1561021;  245  623251;  246  119914; 
 259  233133;  260  49828;  272  11224;  274  12379;  383  5343; 
 397  4735; 

Name: Unknown 5
DB.idx: -5
rt: 17.17
Class: Unknown
rt.sd: 0.0037
Num Peaks: 40
 59  2187707;  68  185043;  81  44099;  82  201524;  83  100025; 
 85  180801;  86  1729085;  87  279659;  88  183865;  89  788696; 
 90  100617;  97  59521;  98  134602;  100  1168202;  112  121947; 
 113  138074;  114  336394;  122  55262;  125  32635;  126  110072; 
 138  43902;  153  88864;  154  142561;  155  2161188;  169  111613; 
 170  89923;  171  142198;  172  531182;  173  402337;  174  12847348; 
 175  2298362;  176  1000514;  177  138838;  178  29631;  213  18589; 
 274  166541;  275  49358;  364  3622;  378  2355;  393  7299; 

Name: Unknown 6
DB.idx: -6
rt: 13.317
Class: Unknown
rt.sd: 0.0032
Num Peaks: 27
 88  94936;  89  338650;  101  500564;  103  2370715;  104  251305; 
 113  91244;  117  3291236;  118  357036;  129  634783;  147  6704169; 
 148  1095461;  149  708280;  150  100597;  175  445215;  177  377818; 
 203  457034;  204  803831;  205  5185592;  206  1061940;  217  346315; 
 218  1548849;  219  298102;  220  124613;  263  31206;  293  122443; 
 323  4285;  381  6432; 

