Name: Ribitol, 5TMS
DB.idx: 20
rt: 24.487
Class: Standard
std.rt: 0.0029
Num Peaks: 236
 53  484493;  54  695945;  55  1354523;  56  372585;  57  610381; 
 58  1975838;  59  7252890;  60  668667;  61  963183;  62  72158; 
 65  178088;  66  238174;  67  312221;  68  146657;  69  1435704; 
 70  890902;  71  1214900;  73  255794624;  74  20569848;  75  11930560; 
 76  582087;  77  282835;  80  72942;  81  671319;  82  82562; 
 83  362420;  84  126711;  85  414737;  87  957419;  88  1077919; 
 89  4848651;  90  433900;  91  257674;  97  193608;  98  131995; 
 99  640310;  101  5368499;  102  2584083;  103  72645264;  104  6655121; 
 105  2919377;  106  179462;  107  48313;  109  52486;  111  353703; 
 112  101412;  113  1200254;  114  258895;  115  1323592;  116  3110454; 
 117  24488592;  118  2549635;  119  2054881;  120  203949;  121  120934; 
 122  33489;  124  40536;  125  138383;  126  152196;  127  897757; 
 129  30013736;  130  3822753;  131  7478347;  132  1578588;  133  14029076; 
 134  2046375;  135  1186150;  136  141997;  137  57765;  140  71928; 
 141  300436;  142  432039;  143  1706118;  144  725914;  145  1764077; 
 147  71203504;  148  10585450;  149  6415062;  150  663526;  151  262683; 
 152  76693;  153  168524;  154  120303;  155  751945;  156  277354; 
 157  3698883;  158  496059;  159  634273;  160  225394;  161  891534; 
 162  190709;  163  1260574;  164  184724;  165  133548;  166  26235; 
 167  30928;  168  59514;  169  194652;  170  275725;  171  523991; 
 172  122156;  173  305348;  175  2034812;  176  419662;  177  963719; 
 178  185496;  180  40423;  182  40329;  184  64191;  185  148608; 
 187  424373;  189  19608960;  190  4169419;  191  8217653;  192  1331597; 
 193  722696;  194  123073;  195  97000;  197  67561;  199  133355; 
 201  710567;  202  769633;  203  6313788;  204  19501856;  205  45589056; 
 206  10053682;  207  4957748;  208  871344;  209  313261;  210  128501; 
 212  207396;  213  492787;  215  1178587;  217  83926624;  218  21027104; 
 219  8168478;  220  1495561;  221  3520077;  222  748968;  223  438519; 
 224  69651;  225  32784;  226  44573;  228  124672;  229  2696097; 
 230  808218;  231  473556;  232  105721;  233  81117;  235  37729; 
 237  125020;  239  40038;  241  82929;  242  510099;  243  5776061; 
 244  1290901;  245  749023;  246  155798;  247  140347;  249  62978; 
 250  25293;  259  37885;  261  36487;  263  65913;  265  241633; 
 266  79524;  268  13885;  270  15597;  275  76731;  276  208947; 
 277  5627728;  278  1796354;  279  908796;  280  209689;  281  80821; 
 284  17164;  287  24199;  288  71808;  290  112614;  291  2248012; 
 292  705207;  293  350712;  294  103196;  295  54410;  296  36674; 
 298  42352;  299  67719;  301  95693;  303  198499;  305  1025345; 
 306  1572839;  307  16053446;  308  4145689;  309  2136510;  310  399656; 
 311  153824;  312  84201;  314  101310;  316  201500;  317  2286832; 
 319  23224272;  320  6035760;  321  2978486;  322  616268;  323  181505; 
 324  35519;  325  15085;  327  21162;  329  26325;  331  323828; 
 332  3879571;  333  1256885;  334  582695;  335  165122;  336  50279; 
 351  28408;  352  20247;  379  18548;  392  27989;  394  30369; 
 395  443709;  396  172252;  398  38565;  399  12520;  406  22851; 
 407  145834;  409  48566;  410  24846;  412  13975;  415  9077; 
 418  13964;  420  20502;  422  778569;  423  260681;  425  51067; 
 427  4882;

Name: Glycine, 3TMS
DB.idx: 21
RI: 1302.682
monoMW: 291.610
rt: 13.965
std.rt: 0.0033
Class: Standard
Num Peaks: 59
42  6; 44  10; 45  73; 46  6; 58  7; 
59  70; 60  5; 70  5; 73  466; 74  40; 
75  35; 86  158; 87  17; 88  6; 100 75; 
101  13; 102  6; 103  6; 114  4; 115  3; 
116  9; 117  12; 118  3; 119  6; 128  3; 
130  21; 131  23; 132  4; 133  61; 134  7; 
135  5; 144  7; 145  5; 147  223; 148  36; 
149  15; 150  3; 156  4; 158  7; 172  7; 
174  999; 175  184; 176  81; 177  14; 188  3; 
189  3; 204  3; 246  12; 248  130; 249  33; 
250  16; 251  4; 255  4; 274  4; 276  44; 
277  11; 278  5; 325  8; 430  5;

Name: Pyroglutamic acid, 2TMS
DB.idx: 22
RI: 1650.417
Formula: C11H23NO3Si2
MW: 273.477
rt: 19.496
std.rt: 0.0035
Class: Standard
Num Peaks: 97
39  2; 41  5; 42  2; 43  13; 44  11; 
45  47; 46  3; 47  6; 55  6; 56  2; 
57  3; 58  10; 59  13; 60  2; 61  4; 
66  8; 67  4; 68  2; 69  2; 70  5; 
71  3; 72  15; 73  446; 74  40; 75  46; 
76  3; 77  2; 80  2; 82  1; 83  2; 
84  9; 85  6; 86  8; 87  2; 88  1; 
89  1; 97  1; 98  2; 99  4; 100  6; 
101  2; 102  2; 103  2; 105  1; 110  1; 
112  7; 113  2; 114  3; 115  3; 116  1; 
117  4; 118  1; 119  1; 126  2; 127  2; 
128  2; 129  3; 130  1; 131  10; 132  3; 
133  19; 134  3; 135  2; 139  1; 140  15; 
141  4; 142  3; 143  1; 147  163; 148  25; 
149  13; 150  1; 154  6; 156  999; 157  125; 
158  42; 159  3; 168  1; 170  1; 172  1; 
174  1; 183  1; 186  1; 190  1; 214  6; 
215  1; 216  1; 228  4; 230  68; 231  14; 
232  6; 233  1; 258  66; 259  14; 260  6; 
261  1; 273  3;

Name: Alanine, 3TMS
DB.idx: 23
RI: 1360.504
Formula: C12H31NO2Si3
MW: 305.637
rt: 15.323
std.rt: 0.0026
Num Peaks: 58
43 16; 44 8; 45 87; 46 4; 47 5; 
55 3; 57 5; 58 8; 59 114; 60 4; 
61 5; 66 3; 70 7; 71 4; 73 571; 
74 42; 75 37; 85 3; 86 5; 87 3; 
100 464; 101 46; 102 19; 114 126; 115 19; 
116 21; 117 10; 119 5; 128 4; 130 36; 
131 28; 133 97; 134 9; 135 5; 142 3; 
147 227; 148 32; 149 18; 158 14; 160 3; 
172 20; 173 3; 174 10; 175 7; 188 999; 
189 178; 190 79; 200 3; 202 10; 204 3; 
207 4; 246 9; 262 168; 263 40; 264 21; 
290 26; 291 7; 292 4;

Name: Aspartic acid, 2TMS
DB.idx: 24
RI: 1422.39
Formula: C10H23NO4Si2
MW: 277.465
rt: 17.073
std.rt: 0.0042
Num Peaks: 63
70 58; 71 6; 72 32; 73 999; 74 116; 
75 311; 76 30; 77 16; 84 4; 85 4; 
86 10; 87 8; 88 6; 89 8; 91 5; 
98 6; 99 7; 100 53; 101 11; 102 21; 
103 13; 115 7; 116 222; 117 263; 118 36; 
119 12; 128 17; 129 7; 130 309; 131 48; 
132 20; 133 24; 134 4; 135 3; 143 3; 
144 43; 145 6; 146 27; 147 132; 148 24; 
149 18; 150 3; 159 25; 160 580; 161 73; 
162 26; 172 10; 174 6; 187 7; 190 3; 
202 21; 203 4; 220 16; 221 3; 234 33; 
235 8; 236 3; 244 7; 245 50; 246 11; 
247 4; 262 17; 263 3; 
