Name: Citric acid, 4TMS
DB.idx: 2
rt: 26.388
Class: Standard
std.rt: 0.0033
Num Peaks: 306
 51  182440;  53  944503;  54  369474;  55  3340984;  56  631621; 
 57  1917866;  58  4022998;  59  7124250;  60  1136187;  61  3360226; 
 62  270567;  63  274496;  64  92673;  65  596213;  66  1375147; 
 67  29728440;  68  2870079;  69  7753328;  70  2902024;  71  3789043; 
 73  568680448;  74  43528896;  75  53883280;  76  3162129;  77  2013799; 
 78  199164;  80  182410;  81  410840;  82  393470;  83  722156; 
 84  357947;  85  967232;  87  948029;  88  768057;  90  156249; 
 91  260012;  92  99612;  93  484120;  94  154828;  95  2155326; 
 96  570631;  97  2832195;  98  884129;  99  6057456;  100  901743; 
 101  2372723;  102  777585;  103  3539850;  104  588809;  105  1075844; 
 106  134945;  107  106216;  108  101852;  109  180387;  110  223423; 
 111  3206633;  112  518841;  113  1510184;  114  994678;  115  9213996; 
 116  4521172;  117  7533040;  118  1075844;  119  2174633;  120  337670; 
 121  258926;  122  70846;  123  104017;  124  144382;  125  308738; 
 126  337482;  127  910328;  129  20845872;  130  3362201;  131  16099514; 
 132  3406929;  133  29688000;  134  3878467;  135  3072204;  136  413006; 
 137  197256;  139  2030190;  140  620491;  141  4152273;  142  1327340; 
 143  8684138;  144  1819458;  145  4017967;  147  200837440;  148  29891264; 
 149  28219728;  150  3469614;  151  1890352;  152  194516;  153  184777; 
 154  171885;  155  717771;  156  729191;  157  3387463;  158  683504; 
 159  1246274;  160  389481;  161  1444098;  162  599553;  163  3434399; 
 164  632442;  165  329193;  166  82631;  167  137194;  169  2562089; 
 170  633280;  171  3530186;  172  620707;  173  1957234;  174  453803; 
 175  1162607;  177  1041603;  178  243870;  179  377563;  180  324557; 
 182  1305937;  183  27886152;  184  4401348;  185  7408749;  186  1038060; 
 187  786083;  188  401997;  189  4074698;  190  3681600;  191  3506198; 
 192  885480;  193  893802;  194  185169;  195  195338;  197  222142; 
 199  379028;  200  277582;  201  2348285;  202  664572;  204  2617974; 
 205  3047171;  206  945784;  207  6348739;  208  1282767;  209  1320173; 
 211  35582544;  212  5146030;  213  6219443;  214  1188770;  215  6843221; 
 216  1949978;  217  12794076;  218  2410886;  219  2066598;  220  1010152; 
 221  22020056;  222  4667719;  223  2630114;  224  450357;  225  222471; 
 227  321331;  228  605520;  229  7752264;  230  2139958;  231  13207040; 
 232  2678220;  233  1425499;  234  292451;  237  131952;  239  47218; 
 241  772176;  242  241267;  243  1180683;  244  1826076;  246  547409; 
 247  349477;  249  106869;  251  127714;  253  153743;  254  399694; 
 256  828341;  257  25474552;  258  5060000;  259  4993330;  260  1024075; 
 261  759800;  262  276370;  265  397890;  266  621849;  268  771479; 
 269  1244961;  271  2811522;  273  268954368;  274  53602984;  275  22510112; 
 276  3330621;  277  743203;  278  231148;  281  80856;  282  93746; 
 284  269838;  285  7507309;  286  1649268;  287  2266290;  288  469174; 
 289  339176;  290  165024;  291  886445;  293  353391;  294  129756; 
 296  83259;  298  101716;  300  312634;  301  4634309;  302  1178072; 
 303  6680037;  304  2008316;  305  18700928;  306  4777002;  307  2634742; 
 308  582534;  309  184632;  310  55438;  312  32086;  315  109997; 
 317  336618;  319  5065135;  320  1389835;  321  820766;  322  188908; 
 323  53936;  325  44460;  327  75044;  328  121028;  330  165692; 
 331  1980360;  332  700647;  333  3553830;  334  1063468;  335  790802; 
 336  257548;  337  116973;  339  165717;  340  137253;  342  233788; 
 343  364835;  345  1292505;  347  52233088;  348  13880332;  349  8230009; 
 350  1679860;  351  619344;  352  175387;  354  122530;  355  129865; 
 357  231845;  359  284379;  361  1354809;  363  38959616;  364  11115190; 
 365  5293770;  366  1376448;  367  333629;  368  188373;  370  189815; 
 371  412929;  373  1387569;  375  45273392;  376  12240300;  377  6837263; 
 378  1440693;  379  458045;  380  104829;  381  58155;  387  34207; 
 389  131643;  390  55505;  393  289278;  395  100446;  396  18685; 
 403  102555;  404  31421;  407  15187;  411  12178;  413  12653; 
 414  19622;  417  12879;  419  46053;  421  949864;  422  340572; 
 423  166409;  424  38290;  426  12914;  427  8486;  429  15884; 
 431  16140;  434  20631;  435  53956;  437  537166;  438  190598; 
 439  54183;  441  29758;  442  26876;  445  20469;  447  69016; 
 449  29707; 

Name: D-Mannitol, 6TMS
DB.idx: 3
rt: 28.581
Class: Standard
std.rt: 0.003
Num Peaks: 262
 53  489021;  54  603836;  55  1296110;  56  240694;  57  468516; 
 58  1361419;  59  5385271;  60  600415;  61  685447;  62  50899; 
 65  174941;  66  248563;  67  561571;  68  202305;  69  1974377; 
 70  1019515;  71  2195285;  73  313828096;  74  24504736;  75  14418284; 
 76  710141;  77  300001;  80  54665;  81  355840;  82  176784; 
 83  843593;  85  462163;  87  985865;  88  1092171;  89  5177380; 
 90  497114;  91  285900;  95  120202;  97  713272;  98  146347; 
 99  711382;  101  4995195;  102  1762743;  103  64609360;  104  5672787; 
 105  2449323;  106  165918;  107  55327;  109  68539;  111  416313; 
 112  116187;  113  1107303;  114  292335;  115  1204805;  116  2483870; 
 117  29633616;  118  3032737;  119  2200058;  120  240593;  121  103551; 
 123  25022;  124  26840;  126  129086;  127  788372;  129  16042250; 
 130  2295043;  131  6536466;  132  1402198;  133  13981890;  134  1920767; 
 135  1164582;  136  118026;  137  53848;  139  103647;  140  100626; 
 141  453872;  142  406374;  143  3158339;  144  879780;  145  1935140; 
 147  88314448;  148  12980806;  149  8111785;  150  848425;  151  351179; 
 152  65879;  153  186902;  155  868440;  156  309854;  157  12564018; 
 158  1721358;  159  1213086;  160  317166;  161  858421;  162  224029; 
 163  1522743;  164  248014;  165  133909;  166  42349;  167  236123; 
 168  86281;  169  748510;  170  134870;  173  397155;  175  2126834; 
 176  496778;  177  1031212;  178  163224;  180  67632;  182  92776; 
 183  1707552;  184  290498;  185  213669;  186  145851;  187  362782; 
 189  14265610;  190  3334795;  191  10874944;  192  1982930;  193  978937; 
 194  161031;  195  110337;  196  86552;  198  139329;  200  309133; 
 202  1073601;  203  2944374;  204  19011368;  205  82549168;  206  15710668; 
 207  7684245;  208  1216334;  209  396316;  210  122731;  212  226475; 
 214  446517;  215  1138772;  217  66903880;  218  13724390;  219  6002931; 
 220  973671;  221  4195529;  222  994733;  223  519330;  224  117799; 
 225  83667;  227  155589;  229  9024550;  230  2892646;  231  5139250; 
 232  1026520;  233  422174;  234  82288;  235  69769;  237  90457; 
 239  282353;  240  85068;  241  115747;  242  73554;  243  745250; 
 244  164620;  245  184520;  246  49977;  247  378678;  248  110875; 
 249  124905;  250  30936;  252  33418;  253  66438;  255  2899335; 
 256  617506;  257  711078;  258  221966;  259  1399072;  260  235165; 
 261  144602;  263  106175;  264  59417;  265  831259;  266  224676; 
 267  154944;  268  30759;  269  20210;  273  444190;  275  137822; 
 276  175522;  277  4996696;  278  2117230;  279  982094;  280  237657; 
 281  97465;  287  47318;  289  202094;  290  244552;  291  5639959; 
 292  1397171;  293  931032;  294  179439;  295  78835;  298  51134; 
 301  108168;  303  311611;  305  4350360;  306  2591483;  307  14266974; 
 308  4204298;  309  1959673;  310  458569;  311  271616;  312  183307; 
 314  284851;  316  420639;  317  1486094;  319  78401344;  320  21270632; 
 321  11243118;  322  2039251;  323  484601;  324  92056;  326  19785; 
 328  40054;  329  438089;  331  3609429;  332  1063426;  333  660463; 
 334  153796;  335  61812;  339  28388;  341  35995;  343  120905; 
 344  208815;  345  3986655;  346  1172157;  347  655510;  348  153401; 
 351  25811;  352  13535;  365  31026;  367  10102;  379  67096; 
 381  33640;  389  22046;  391  30400;  393  119966;  394  33212; 
 396  18310;  400  5837;  405  77535;  406  46138;  408  125573; 
 409  218684;  410  114425;  412  27373;  413  16752;  415  21547; 
 416  33894;  418  169601;  419  1340052;  420  448050;  421  2000738; 
 422  712163;  423  384997;  424  100122;  425  22736;  434  213261; 
 435  116595;  437  17236; 

Name: Ribitol, 5TMS
DB.idx: 4
rt: 24.487
Class: Standard
std.rt: 0.0029
Num Peaks: 236
 53  484493;  54  695945;  55  1354523;  56  372585;  57  610381; 
 58  1975838;  59  7252890;  60  668667;  61  963183;  62  72158; 
 65  178088;  66  238174;  67  312221;  68  146657;  69  1435704; 
 70  890902;  71  1214900;  73  255794624;  74  20569848;  75  11930560; 
 76  582087;  77  282835;  80  72942;  81  671319;  82  82562; 
 83  362420;  84  126711;  85  414737;  87  957419;  88  1077919; 
 89  4848651;  90  433900;  91  257674;  97  193608;  98  131995; 
 99  640310;  101  5368499;  102  2584083;  103  72645264;  104  6655121; 
 105  2919377;  106  179462;  107  48313;  109  52486;  111  353703; 
 112  101412;  113  1200254;  114  258895;  115  1323592;  116  3110454; 
 117  24488592;  118  2549635;  119  2054881;  120  203949;  121  120934; 
 122  33489;  124  40536;  125  138383;  126  152196;  127  897757; 
 129  30013736;  130  3822753;  131  7478347;  132  1578588;  133  14029076; 
 134  2046375;  135  1186150;  136  141997;  137  57765;  140  71928; 
 141  300436;  142  432039;  143  1706118;  144  725914;  145  1764077; 
 147  71203504;  148  10585450;  149  6415062;  150  663526;  151  262683; 
 152  76693;  153  168524;  154  120303;  155  751945;  156  277354; 
 157  3698883;  158  496059;  159  634273;  160  225394;  161  891534; 
 162  190709;  163  1260574;  164  184724;  165  133548;  166  26235; 
 167  30928;  168  59514;  169  194652;  170  275725;  171  523991; 
 172  122156;  173  305348;  175  2034812;  176  419662;  177  963719; 
 178  185496;  180  40423;  182  40329;  184  64191;  185  148608; 
 187  424373;  189  19608960;  190  4169419;  191  8217653;  192  1331597; 
 193  722696;  194  123073;  195  97000;  197  67561;  199  133355; 
 201  710567;  202  769633;  203  6313788;  204  19501856;  205  45589056; 
 206  10053682;  207  4957748;  208  871344;  209  313261;  210  128501; 
 212  207396;  213  492787;  215  1178587;  217  83926624;  218  21027104; 
 219  8168478;  220  1495561;  221  3520077;  222  748968;  223  438519; 
 224  69651;  225  32784;  226  44573;  228  124672;  229  2696097; 
 230  808218;  231  473556;  232  105721;  233  81117;  235  37729; 
 237  125020;  239  40038;  241  82929;  242  510099;  243  5776061; 
 244  1290901;  245  749023;  246  155798;  247  140347;  249  62978; 
 250  25293;  259  37885;  261  36487;  263  65913;  265  241633; 
 266  79524;  268  13885;  270  15597;  275  76731;  276  208947; 
 277  5627728;  278  1796354;  279  908796;  280  209689;  281  80821; 
 284  17164;  287  24199;  288  71808;  290  112614;  291  2248012; 
 292  705207;  293  350712;  294  103196;  295  54410;  296  36674; 
 298  42352;  299  67719;  301  95693;  303  198499;  305  1025345; 
 306  1572839;  307  16053446;  308  4145689;  309  2136510;  310  399656; 
 311  153824;  312  84201;  314  101310;  316  201500;  317  2286832; 
 319  23224272;  320  6035760;  321  2978486;  322  616268;  323  181505; 
 324  35519;  325  15085;  327  21162;  329  26325;  331  323828; 
 332  3879571;  333  1256885;  334  582695;  335  165122;  336  50279; 
 351  28408;  352  20247;  379  18548;  392  27989;  394  30369; 
 395  443709;  396  172252;  398  38565;  399  12520;  406  22851; 
 407  145834;  409  48566;  410  24846;  412  13975;  415  9077; 
 418  13964;  420  20502;  422  778569;  423  260681;  425  51067; 
 427  4882;

Name: Glycine, 3TMS
DB.idx: 5
RI: 1302.682
monoMW: 291.610
rt: 13.965
std.rt: 0.0033
Class: Standard
Num Peaks: 59
42  6; 44  10; 45  73; 46  6; 58  7; 
59  70; 60  5; 70  5; 73  466; 74  40; 
75  35; 86  158; 87  17; 88  6; 100 75; 
101  13; 102  6; 103  6; 114  4; 115  3; 
116  9; 117  12; 118  3; 119  6; 128  3; 
130  21; 131  23; 132  4; 133  61; 134  7; 
135  5; 144  7; 145  5; 147  223; 148  36; 
149  15; 150  3; 156  4; 158  7; 172  7; 
174  999; 175  184; 176  81; 177  14; 188  3; 
189  3; 204  3; 246  12; 248  130; 249  33; 
250  16; 251  4; 255  4; 274  4; 276  44; 
277  11; 278  5; 325  8; 430  5;

Name: Pyroglutamic acid, 2TMS
DB.idx: 6
RI: 1650.417
Formula: C11H23NO3Si2
MW: 273.477
rt: 19.496
std.rt: 0.0035
Class: Standard
Num Peaks: 97
39  2; 41  5; 42  2; 43  13; 44  11; 
45  47; 46  3; 47  6; 55  6; 56  2; 
57  3; 58  10; 59  13; 60  2; 61  4; 
66  8; 67  4; 68  2; 69  2; 70  5; 
71  3; 72  15; 73  446; 74  40; 75  46; 
76  3; 77  2; 80  2; 82  1; 83  2; 
84  9; 85  6; 86  8; 87  2; 88  1; 
89  1; 97  1; 98  2; 99  4; 100  6; 
101  2; 102  2; 103  2; 105  1; 110  1; 
112  7; 113  2; 114  3; 115  3; 116  1; 
117  4; 118  1; 119  1; 126  2; 127  2; 
128  2; 129  3; 130  1; 131  10; 132  3; 
133  19; 134  3; 135  2; 139  1; 140  15; 
141  4; 142  3; 143  1; 147  163; 148  25; 
149  13; 150  1; 154  6; 156  999; 157  125; 
158  42; 159  3; 168  1; 170  1; 172  1; 
174  1; 183  1; 186  1; 190  1; 214  6; 
215  1; 216  1; 228  4; 230  68; 231  14; 
232  6; 233  1; 258  66; 259  14; 260  6; 
261  1; 273  3;

Name: Alanine, 3TMS
DB.idx: 7
RI: 1360.504
Formula: C12H31NO2Si3
MW: 305.637
rt: 15.323
std.rt: 0.0026
Num Peaks: 58
43 16; 44 8; 45 87; 46 4; 47 5; 
55 3; 57 5; 58 8; 59 114; 60 4; 
61 5; 66 3; 70 7; 71 4; 73 571; 
74 42; 75 37; 85 3; 86 5; 87 3; 
100 464; 101 46; 102 19; 114 126; 115 19; 
116 21; 117 10; 119 5; 128 4; 130 36; 
131 28; 133 97; 134 9; 135 5; 142 3; 
147 227; 148 32; 149 18; 158 14; 160 3; 
172 20; 173 3; 174 10; 175 7; 188 999; 
189 178; 190 79; 200 3; 202 10; 204 3; 
207 4; 246 9; 262 168; 263 40; 264 21; 
290 26; 291 7; 292 4;

Name: Aspartic acid, 2TMS
DB.idx: 8
RI: 1422.39
Formula: C10H23NO4Si2
MW: 277.465
rt: 17.073
std.rt: 0.0042
Num Peaks: 63
70 58; 71 6; 72 32; 73 999; 74 116; 
75 311; 76 30; 77 16; 84 4; 85 4; 
86 10; 87 8; 88 6; 89 8; 91 5; 
98 6; 99 7; 100 53; 101 11; 102 21; 
103 13; 115 7; 116 222; 117 263; 118 36; 
119 12; 128 17; 129 7; 130 309; 131 48; 
132 20; 133 24; 134 4; 135 3; 143 3; 
144 43; 145 6; 146 27; 147 132; 148 24; 
149 18; 150 3; 159 25; 160 580; 161 73; 
162 26; 172 10; 174 6; 187 7; 190 3; 
202 21; 203 4; 220 16; 221 3; 234 33; 
235 8; 236 3; 244 7; 245 50; 246 11; 
247 4; 262 17; 263 3; 

Name: Tryptamine, 2TMS
DB.idx: 9
RI: 2224.531
Formula: C16H28N2Si2
MW: 304.578
rt: 19.047
std.rt: 0.0032
Num Peaks: 119
45 40; 46 4; 47 2; 50 1; 51 3; 
52 2; 53 1; 54 1; 55 2; 56 2; 
57 4; 58 8; 59 94; 60 9; 61 3; 
63 2; 65 2; 66 1; 67 1; 69 1; 
70 3; 71 3; 72 10; 73 475; 74 46; 
75 21; 76 4; 77 28; 78 3; 79 1; 
81 1; 83 1; 84 2; 85 1; 86 198; 
87 20; 88 8; 89 4; 90 3; 91 4; 
99 2; 100 103; 101 19; 102 23; 103 26; 
104 4; 105 1; 113 3; 114 3; 115 17; 
116 15; 117 29; 118 6; 119 2; 120 1; 
127 2; 128 10; 129 9; 130 152; 131 32; 
132 9; 133 3; 134 4; 135 1; 137 33; 
138 6; 141 1; 142 5; 143 16; 144 22; 
145 9; 146 26; 147 6; 148 4; 155 1; 
156 3; 157 1; 158 13; 159 4; 160 12; 
161 3; 162 1; 170 3; 171 1; 172 18; 
174 999; 175 249; 176 113; 177 16; 178 3; 
184 4; 185 1; 186 7; 187 2; 188 22; 
189 4; 190 2; 199 3; 200 3; 201 39; 
202 9; 203 2; 204 1; 207 1; 213 1; 
214 3; 215 34; 216 7; 217 2; 273 1; 
287 4; 288 1; 289 56; 290 16; 291 6; 
292 1; 303 1; 304 3; 305 1; 


